sat
(= |goto_symex::&92;guard#1| true)
(= |goto_symex::&92;guard#2| true)
(= |goto_symex::&92;guard#3| true)
(= |goto_symex::&92;guard#4| false)
(= |goto_symex::&92;guard#5| false)
(= |goto_symex::&92;guard#6| true)
(= |goto_symex::&92;guard#7| false)
(= |goto_symex::&92;guard#8| true)
(= |goto_symex::&92;guard#9| true)
(= |goto_symex::&92;guard#10| true)
(= |goto_symex::&92;guard#11| true)
(= |goto_symex::&92;guard#12| true)
(= |goto_symex::&92;guard#13| false)
(= |goto_symex::&92;guard#14| false)
(= |goto_symex::&92;guard#15| false)
(= |goto_symex::&92;guard#16| true)
(= |goto_symex::&92;guard#17| false)
(= |goto_symex::&92;guard#18| true)
(= |goto_symex::&92;guard#19| false)
(= |goto_symex::&92;guard#20| true)
(= |goto_symex::&92;guard#21| false)
(= |goto_symex::&92;guard#22| true)
(= |goto_symex::&92;guard#23| true)
(= |memory_model::choice_rf_0_30_0_9_T_0| true)
(= |memory_model::choice_rf_0_30_1_26_T_1| false)
(= |memory_model::choice_rf_0_30_2_8_T_2| false)
(= |memory_model::choice_rf_1_16_0_9_T_3| false)
(= |memory_model::choice_rf_1_16_2_8_T_4| false)
(= |memory_model::choice_rf_1_25_0_9_T_5| false)
(= |memory_model::choice_rf_1_25_2_8_T_6| false)
(= |memory_model::choice_rf_2_7_0_9_T_7| false)
(= |memory_model::choice_rf_2_7_1_26_T_8| false)
(= |memory_model::choice_rf_0_29_0_7_T_9| false)
(= |memory_model::choice_rf_0_29_0_17_T_10| false)
(= |memory_model::choice_rf_0_29_1_4_T_11| true)
(= |memory_model::choice_rf_1_3_0_7_T_12| false)
(= |memory_model::choice_rf_1_3_0_17_T_13| true)
(= |memory_model::choice_rf_1_15_0_7_T_14| false)
(= |memory_model::choice_rf_1_15_0_17_T_15| false)
(= |memory_model::choice_rf_1_15_1_4_T_16| false)
(= |memory_model::choice_rf_0_27_0_13_F_17| false)
(= |memory_model::choice_rf_0_27_0_18_F_18| true)
(= |memory_model::choice_rf_0_28_0_13_F_19| false)
(= |memory_model::choice_rf_0_28_0_18_F_20| true)
(= |memory_model::choice_rf_1_13_0_14_F_21| false)
(= |memory_model::choice_rf_1_13_1_5_F_22| false)
(= |memory_model::choice_rf_1_14_0_14_F_23| false)
(= |memory_model::choice_rf_1_14_1_5_F_24| false)
(= |memory_model::choice_rf_0_23_0_11_F_25| false)
(= |memory_model::choice_rf_0_23_0_15_F_26| false)
(= |memory_model::choice_rf_0_23_2_1_F_27| false)
(= |memory_model::choice_rf_0_23_2_6_F_28| false)
(= |memory_model::choice_rf_0_24_0_11_F_29| false)
(= |memory_model::choice_rf_0_24_0_15_F_30| false)
(= |memory_model::choice_rf_0_24_2_1_F_31| false)
(= |memory_model::choice_rf_0_24_2_6_F_32| false)
(= |memory_model::choice_rf_0_31_0_11_F_33| false)
(= |memory_model::choice_rf_0_31_0_15_F_34| true)
(= |memory_model::choice_rf_0_31_0_25_F_35| false)
(= |memory_model::choice_rf_0_31_2_1_F_36| false)
(= |memory_model::choice_rf_0_31_2_6_F_37| false)
(= |memory_model::choice_rf_0_32_0_11_F_38| false)
(= |memory_model::choice_rf_0_32_0_15_F_39| true)
(= |memory_model::choice_rf_0_32_0_25_F_40| false)
(= |memory_model::choice_rf_0_32_2_1_F_41| false)
(= |memory_model::choice_rf_0_32_2_6_F_42| false)
(= |memory_model::choice_rf_2_0_0_11_F_43| false)
(= |memory_model::choice_rf_2_0_0_15_F_44| true)
(= |memory_model::choice_rf_2_0_0_25_F_45| false)
(= |memory_model::choice_rf_2_0_0_33_F_46| false)
(= |memory_model::choice_rf_2_5_0_11_F_47| false)
(= |memory_model::choice_rf_2_5_0_15_F_48| false)
(= |memory_model::choice_rf_2_5_0_25_F_49| false)
(= |memory_model::choice_rf_2_5_0_33_F_50| false)
(= |memory_model::choice_rf_2_5_2_1_F_51| false)
(= |memory_model::choice_rf_0_21_0_12_F_52| false)
(= |memory_model::choice_rf_0_21_0_16_F_53| false)
(= |memory_model::choice_rf_0_21_0_20_F_54| false)
(= |memory_model::choice_rf_0_21_1_8_F_55| false)
(= |memory_model::choice_rf_0_21_1_18_F_56| false)
(= |memory_model::choice_rf_0_21_1_22_F_57| false)
(= |memory_model::choice_rf_0_21_2_2_F_58| false)
(= |memory_model::choice_rf_0_22_0_12_F_59| false)
(= |memory_model::choice_rf_0_22_0_16_F_60| false)
(= |memory_model::choice_rf_0_22_0_20_F_61| false)
(= |memory_model::choice_rf_0_22_1_8_F_62| false)
(= |memory_model::choice_rf_0_22_1_18_F_63| false)
(= |memory_model::choice_rf_0_22_1_22_F_64| false)
(= |memory_model::choice_rf_0_22_2_2_F_65| false)
(= |memory_model::choice_rf_0_35_0_12_F_66| false)
(= |memory_model::choice_rf_0_35_0_16_F_67| false)
(= |memory_model::choice_rf_0_35_0_20_F_68| false)
(= |memory_model::choice_rf_0_35_0_34_F_69| false)
(= |memory_model::choice_rf_0_35_1_8_F_70| false)
(= |memory_model::choice_rf_0_35_1_18_F_71| false)
(= |memory_model::choice_rf_0_35_1_22_F_72| false)
(= |memory_model::choice_rf_0_35_2_2_F_73| false)
(= |memory_model::choice_rf_0_36_0_12_F_74| false)
(= |memory_model::choice_rf_0_36_0_16_F_75| false)
(= |memory_model::choice_rf_0_36_0_20_F_76| false)
(= |memory_model::choice_rf_0_36_0_34_F_77| false)
(= |memory_model::choice_rf_0_36_1_8_F_78| false)
(= |memory_model::choice_rf_0_36_1_18_F_79| false)
(= |memory_model::choice_rf_0_36_1_22_F_80| false)
(= |memory_model::choice_rf_0_36_2_2_F_81| false)
(= |memory_model::choice_rf_1_9_0_12_F_82| false)
(= |memory_model::choice_rf_1_9_0_16_F_83| false)
(= |memory_model::choice_rf_1_9_0_20_F_84| false)
(= |memory_model::choice_rf_1_9_0_34_F_85| false)
(= |memory_model::choice_rf_1_9_1_8_F_86| true)
(= |memory_model::choice_rf_1_9_2_2_F_87| false)
(= |memory_model::choice_rf_1_10_0_12_F_88| false)
(= |memory_model::choice_rf_1_10_0_16_F_89| false)
(= |memory_model::choice_rf_1_10_0_20_F_90| false)
(= |memory_model::choice_rf_1_10_0_34_F_91| false)
(= |memory_model::choice_rf_1_10_1_8_F_92| true)
(= |memory_model::choice_rf_1_10_2_2_F_93| false)
(= |memory_model::choice_rf_1_19_0_12_F_94| false)
(= |memory_model::choice_rf_1_19_0_16_F_95| false)
(= |memory_model::choice_rf_1_19_0_20_F_96| false)
(= |memory_model::choice_rf_1_19_0_34_F_97| false)
(= |memory_model::choice_rf_1_19_1_8_F_98| false)
(= |memory_model::choice_rf_1_19_1_18_F_99| false)
(= |memory_model::choice_rf_1_19_2_2_F_100| false)
(= |memory_model::choice_rf_1_20_0_12_F_101| false)
(= |memory_model::choice_rf_1_20_0_16_F_102| false)
(= |memory_model::choice_rf_1_20_0_20_F_103| false)
(= |memory_model::choice_rf_1_20_0_34_F_104| false)
(= |memory_model::choice_rf_1_20_1_8_F_105| false)
(= |memory_model::choice_rf_1_20_1_18_F_106| false)
(= |memory_model::choice_rf_1_20_2_2_F_107| false)
(= |memory_model::choice_rf_1_23_0_12_F_108| false)
(= |memory_model::choice_rf_1_23_0_16_F_109| false)
(= |memory_model::choice_rf_1_23_0_20_F_110| false)
(= |memory_model::choice_rf_1_23_0_34_F_111| false)
(= |memory_model::choice_rf_1_23_1_8_F_112| false)
(= |memory_model::choice_rf_1_23_1_18_F_113| false)
(= |memory_model::choice_rf_1_23_1_22_F_114| false)
(= |memory_model::choice_rf_1_23_2_2_F_115| false)
(= |memory_model::choice_rf_1_24_0_12_F_116| false)
(= |memory_model::choice_rf_1_24_0_16_F_117| false)
(= |memory_model::choice_rf_1_24_0_20_F_118| false)
(= |memory_model::choice_rf_1_24_0_34_F_119| false)
(= |memory_model::choice_rf_1_24_1_8_F_120| false)
(= |memory_model::choice_rf_1_24_1_18_F_121| false)
(= |memory_model::choice_rf_1_24_1_22_F_122| false)
(= |memory_model::choice_rf_1_24_2_2_F_123| false)
(= |memory_model::choice_rf_2_3_0_12_F_124| false)
(= |memory_model::choice_rf_2_3_0_16_F_125| false)
(= |memory_model::choice_rf_2_3_0_20_F_126| false)
(= |memory_model::choice_rf_2_3_0_34_F_127| false)
(= |memory_model::choice_rf_2_3_1_8_F_128| true)
(= |memory_model::choice_rf_2_3_1_18_F_129| false)
(= |memory_model::choice_rf_2_3_1_22_F_130| false)
(= |memory_model::choice_rf_2_3_2_2_F_131| false)
(= |memory_model::choice_rf_2_4_0_12_F_132| false)
(= |memory_model::choice_rf_2_4_0_16_F_133| false)
(= |memory_model::choice_rf_2_4_0_20_F_134| false)
(= |memory_model::choice_rf_2_4_0_34_F_135| false)
(= |memory_model::choice_rf_2_4_1_8_F_136| true)
(= |memory_model::choice_rf_2_4_1_18_F_137| false)
(= |memory_model::choice_rf_2_4_1_22_F_138| false)
(= |memory_model::choice_rf_2_4_2_2_F_139| false)
(= |memory_model::choice_rf_1_2_0_10_F_140| false)
(= |memory_model::choice_rf_1_2_1_1_F_141| true)
(= |memory_model::choice_rf_1_11_0_10_F_142| false)
(= |memory_model::choice_rf_1_11_1_1_F_143| false)
(= |memory_model::choice_rf_1_11_1_7_F_144| false)
(= |memory_model::choice_rf_1_21_0_10_F_145| false)
(= |memory_model::choice_rf_1_21_1_1_F_146| false)
(= |memory_model::choice_rf_1_21_1_7_F_147| false)
(= |memory_model::choice_rf_1_21_1_17_F_148| false)
(= |memory_model::choice_ws-ext_0_9_1_26_T_149| true)
(= |memory_model::choice_ws-ext_0_9_2_8_T_150| true)
(= |memory_model::choice_ws-ext_1_26_2_8_T_151| false)
(= |memory_model::choice_ws-ext_0_7_1_4_T_152| true)
(= |memory_model::choice_ws-ext_0_17_1_4_T_153| true)
(= |memory_model::choice_ws-ext_0_14_1_5_F_154| true)
(= |memory_model::choice_ws-ext_0_11_2_1_F_155| true)
(= |memory_model::choice_ws-ext_0_11_2_6_F_156| true)
(= |memory_model::choice_ws-ext_0_15_2_1_F_157| true)
(= |memory_model::choice_ws-ext_0_15_2_6_F_158| true)
(= |memory_model::choice_ws-ext_0_25_2_1_F_159| true)
(= |memory_model::choice_ws-ext_0_25_2_6_F_160| true)
(= |memory_model::choice_ws-ext_0_33_2_1_F_161| false)
(= |memory_model::choice_ws-ext_0_33_2_6_F_162| false)
(= |memory_model::choice_ws-ext_0_12_1_8_F_163| true)
(= |memory_model::choice_ws-ext_0_12_1_18_F_164| true)
(= |memory_model::choice_ws-ext_0_12_1_22_F_165| true)
(= |memory_model::choice_ws-ext_0_12_2_2_F_166| true)
(= |memory_model::choice_ws-ext_0_16_1_8_F_167| true)
(= |memory_model::choice_ws-ext_0_16_1_18_F_168| true)
(= |memory_model::choice_ws-ext_0_16_1_22_F_169| true)
(= |memory_model::choice_ws-ext_0_16_2_2_F_170| true)
(= |memory_model::choice_ws-ext_0_20_1_8_F_171| true)
(= |memory_model::choice_ws-ext_0_20_1_18_F_172| true)
(= |memory_model::choice_ws-ext_0_20_1_22_F_173| true)
(= |memory_model::choice_ws-ext_0_20_2_2_F_174| true)
(= |memory_model::choice_ws-ext_0_34_1_8_F_175| false)
(= |memory_model::choice_ws-ext_0_34_1_18_F_176| false)
(= |memory_model::choice_ws-ext_0_34_1_22_F_177| false)
(= |memory_model::choice_ws-ext_0_34_2_2_F_178| false)
(= |memory_model::choice_ws-ext_1_8_2_2_F_179| false)
(= |memory_model::choice_ws-ext_1_18_2_2_F_180| false)
(= |memory_model::choice_ws-ext_1_22_2_2_F_181| false)
(= |memory_model::choice_ws-ext_0_10_1_1_F_182| true)
(= |memory_model::choice_ws-ext_0_10_1_7_F_183| true)
(= |memory_model::choice_ws-ext_0_10_1_17_F_184| true)
(= |pthread_join::thread!0@1#1| #b00000000000000000000000000000001)
(= |pthread_join::thread!1@1#1| #b11000000000000000000000000000000)
(=
 |mutex#10|
 #b00000000000000000000000000000000000000000000000000000000000000000000000000000000000000000000000000000000000000000000000000000000000000000000000000000000000000000000000000000000000000000000000000000000000000000000000000000000000000000000000000000000000000000000000000000000000000000000000000000000000000000000000000000000)
(= |nondet_symex::nondet1| #b10000000000000000000000000000000)
(= |pdev#5| #b10000000000000000000000000000000)
(=
 |mutex#4|
 #b00000000000000000000000000000000000000000000000000000000000000000000000000000000000000000000000000000000000000000000000000000000000000000000000000000000000000000000000000000000000000000000000000000000000000000000000000000000000000000000000000000000000000000000000000000000000000000000000000000000000000000000000010000000)
(= |t1#4| #b00000000000000000000000000000001)
(= |__CPROVER_next_thread_id#3| #b00000000000000000000000000000010)
(=
 |mutex#7|
 #b00000000000000000000000000000000000000000000000000000000000000000000000000000000000000000000000000000000000000000000000000000000000000000000000000000000000000000000000000000000000000000000000000000000000000000000000000000000000000000000000000000000000000000000000000000000000000000000000000000000000000000000000000000000)
(= |pdev#8| #b00000000000000000000000000000001)
(= |pthread_create::1::this_thread_id!1@0#0| #b00000000000000000000000000000000)
(= |nondet_symex::nondet2| #b00000000000000000000000000000000)
(= |ldv_usb_state#3| #b00000000000000000000000000000000)
(= |nondet_symex::nondet3| #b10000000000000000000000000000000)
(= |__CPROVER_next_thread_id#4| #b00000000000000000000000000000001)
(= |pdev#11| #b00000000000000000000000000000111)
(= |ldv_usb_state#5| #b10000000000000000000000000000000)
(= |t2#4| #b11000000000000000000000000000000)
(= |__CPROVER_next_thread_id#7| #b10000000000000000000000000000000)
(= |pdev#14| #b10000000000000000000000000000000)
(= |ldv_usb_state#7| #b10000000000000000000000000000000)
(= |pdev#17| #b10000000000000000000000000000000)
(= |pthread_create::1::this_thread_id!2@0#0| #b00000000000000000000000000000000)
(= |nondet_symex::nondet4| #b00000000000000000000000000000001)
(=
 |mutex#9|
 #b00000000000000000000000000000000000000000000000000000000000000000000000000000000000000000000000000000000000000000000000000000000000000000000000000000000000000000000000000000000000000000000000000000000000000000000000000000000000000000000000000000000000000000000000000000000000000000000000000000000000000000000000000000000)
(= |pdev#20| #b00000000000000000000000000000111)
(=
 |mutex#12|
 #b00000000000000000000000000000000000000000000000000000000000000000000000000000000000000000000000000000000000000000000000000000000000000000000000000000000000000000000000000000000000000000000000000000000000000000000000000000000000000000000000000000000000000000000000000000000000000000000000000000000000000000000000000000000)
(=
 |mutex#3|
 #b10000000000000000000000000000000000000000000000000000000000000000000000000000000000000000000000000000000000000000000000000000000000000000000000000000000000000000000000000000000000000000000000000000000000000000000000000000000000000000000000000000000000000000000000000000000000000000000000000000000000000000000000000000000)
(=
 |mutex#6|
 #b00000000000000000000000000000000000000000000000000000000000000000000000000000000000000000000000000000000000000000000000000000000000000000000000000000000000000000000000000000000000000000000000000000000000000000000000000000000000000000000000000000000000000000000000000000000000000000000000000000000000000000000000000000000)
(= |__CPROVER_threads_exited#5$wclk$8| #b1110111)
(= |__CPROVER_threads_exited#2$rclk$8| #b1101101)
(= |__CPROVER_threads_exited#7$wclk$8| #b1101100)
(= |__CPROVER_threads_exited#1$wclk$8| #b0010011)
(= |__CPROVER_threads_exited#3$rclk$8| #b1011100)
(= |__CPROVER_threads_exited#4$rclk$8| #b1110011)
(= |__CPROVER_threads_exited#6$rclk$8| #b1001100)
(= |__CPROVER_next_thread_id#6$wclk$8| #b1000010)
(= |__CPROVER_next_thread_id#3$rclk$8| #b1100001)
(= |__CPROVER_next_thread_id#1$wclk$8| #b0010001)
(= |__CPROVER_next_thread_id#4$rclk$8| #b1000010)
(= |__CPROVER_next_thread_id#2$wclk$8| #b0100011)
(= |__CPROVER_next_thread_id#7$rclk$8| #b1011011)
(= |t1#3| #b00000000000000000000000000000001)
(= |t2#3| #b10000000000000000000000000000000)
(= |t2#1$wclk$8| #b0011111)
(= |t2#3$rclk$8| #b1011001)
(= |t2#4$rclk$8| #b1011010)
(= |mutex#11$wclk$8| #b1000101)
(= |mutex#3$rclk$8| #b0101010)
(= |mutex#14$wclk$8| #b1001010)
(= |mutex#4$rclk$8| #b0101011)
(= |mutex#6$rclk$8| #b1101110)
(= |mutex#7$rclk$8| #b1111001)
(= |mutex#1$wclk$8| #b0011100)
(= |mutex#9$rclk$8| #b1000101)
(= |mutex#2$wclk$8| #b0100000)
(= |mutex#5$wclk$8| #b0101100)
(= |mutex#8$wclk$8| #b1111011)
(= |mutex#12$rclk$8| #b1001010)
(= |pdev#4| #b10000000000000000000000000000000)
(= |pdev#9$wclk$8| #b1000111)
(= |pdev#4$rclk$8| #b0101000)
(= |pdev#12$wclk$8| #b1011110)
(= |pdev#15$wclk$8| #b1101100)
(= |pdev#18$wclk$8| #b1000110)
(= |pdev#5$rclk$8| #b0101001)
(= |pdev#7| #b00000000000000000000000000000101)
(= |pdev#7$rclk$8| #b1111110)
(= |pdev#8$rclk$8| #b1111111)
(= |pdev#10| #b00000000000000000000000000000111)
(= |pdev#1$wclk$8| #b0011101)
(= |pdev#10$rclk$8| #b1001001)
(= |pdev#2$wclk$8| #b0100001)
(= |pdev#3$wclk$8| #b0100111)
(= |pdev#6$wclk$8| #b1111101)
(= |pdev#11$rclk$8| #b1001010)
(= |pdev#13| #b10000000000000000000000000000000)
(= |pdev#13$rclk$8| #b1100111)
(= |pdev#14$rclk$8| #b1101001)
(= |pdev#16| #b10000000000000000000000000000000)
(= |pdev#16$rclk$8| #b1101110)
(= |pdev#17$rclk$8| #b1101111)
(= |pdev#19| #b00000000000000000000000000000111)
(= |pdev#19$rclk$8| #b1001000)
(= |pdev#20$rclk$8| #b1001001)
(= |ldv_usb_state#1$wclk$8| #b0010100)
(= |ldv_usb_state#3$rclk$8| #b1000001)
(= |ldv_usb_state#5$rclk$8| #b1001011)
(= |ldv_usb_state#7$rclk$8| #b1101010)
(= |t2#2$wclk$8| #b1000011)
(= |ldv_usb_state#2$wclk$8| #b0110000)
(= |ldv_usb_state#4$wclk$8| #b1000110)
(= |ldv_usb_state#6$wclk$8| #b1011101)
(= t1$19$spwnclk$8 #b0100110)
(= |ieee80211_deregister_hw::1::status!1@1$wclk$8| #b0100111)
(= t2$6$spwnclk$8 #b1000100)
(= |ieee80211_deregister_hw::1::status!1@1#1$wclk$8| #b1001100)
(= |module_exit::1::status!0@1$wclk$8| #b0000000)
(= |__CPROVER_dead_object#1$wclk$8| #b0001000)
(= |__CPROVER_deallocated#1$wclk$8| #b0001001)
(= |__CPROVER_malloc_is_new_array#1$wclk$8| #b0001010)
(= |__CPROVER_malloc_object#1$wclk$8| #b0001101)
(= |__CPROVER_malloc_size#1$wclk$8| #b0001110)
(= |__CPROVER_memory_leak#1$wclk$8| #b0010000)
(= |__CPROVER_pipe_count#1$wclk$8| #b0010010)
(= |t1#1$wclk$8| #b0011110)
(= |t1#2$wclk$8| #b0100100)
(= |module_exit::1::status!0@1#1$wclk$8| #b0101101)
(= |t1#3$rclk$8| #b0101110)
(= |t1#4$rclk$8| #b0101111)
(= |__CPROVER_threads_exited#2| @fun_86)
(= |__CPROVER_threads_exited#3| @fun_87)
(= array_of.0 @fun_86)
(= array.1 @fun_84)
(= |__CPROVER_threads_exited#4| @fun_87)
(= |__CPROVER_threads_exited#6| @fun_90)
(function @fun_86
 (type (Array (_ BitVec 32) (_ BitVec 1)))
 (= (@fun_86 #b00000000000000000000000000000000) #b0)
 (default #b1))
(function @fun_87
 (type (Array (_ BitVec 32) (_ BitVec 1)))
 (default #b0))
(function @fun_84
 (type (Array (_ BitVec 32) (_ BitVec 8)))
 (default #b00000000))
(function @fun_90
 (type (Array (_ BitVec 32) (_ BitVec 1)))
 (default #b1))

real	0m0.022s
user	0m0.016s
sys	0m0.006s
State: AC Run_time: 0.02400827407836914